1 3 100 85340.79
1 3 200 85091.76
1 3 300 82208.88
2 3 100 102173.26
2 3 200 101449.42
2 3 300 100234.17
3 3 100 105455.92
3 3 200 105518.94
3 3 300 105996.99
4 3 100 104842.10
4 3 200 103836.95
4 3 300 105024.28
5 3 100 103793.87
5 3 200 103207.96
5 3 300 103969.76
